
 102   30
  10   10   10   10   10   10   10   10   10   10   10   10   10   10   10   10   10   10   10   10   10   10   10   10   10   10   10   10   10   10

   0   0   0   0   0   0   0   0   0   0   0   0   0   0   0   0   0   0   0   0   0   0   0   0   0   0   0   0   0   0   0  27 2 3 4 5 6 7 8 9 10 11 13 14 15 16 18 19 20 21 22 23 25 28 30 31 32 40 41 
   8   0   0   0   0   0   0   0   0   0   0   0   0   0   0   0   0   0   0   0   0   0   0   3   0   0   0   0   0   0   0   9 67 64 63 61 60 43 34 17 12 
   6   2   0   0   0   0   0   0   0   0   0   0   1   0   0   0   0   0   0   0   0   0   0   0   0   0   0   1   0   0   0  17 76 74 72 64 60 58 57 56 55 54 52 51 50 48 42 39 35 
   8   0   0   0   0   0   0   0   0   0   0   0   0   0   0   0   0   0   0   0   0   0   0   0   0   2   0   0   0   0   0  13 74 73 72 67 66 55 54 52 51 42 37 36 24 
   6   8   0   0   1   0   0   0   0   0   0   0   0   0   5   0   1   0   0   0   0   0   0   0   0   7   0   7   1   0   0  16 101 98 97 74 64 63 62 61 58 55 54 52 50 45 38 33 
   2   0   0   0   0   1   0   0   0   0   1   0   0   0   4   0   0   0   0   0   0   0   0   5   0   0   0   0   0   0   0  13 77 76 75 74 64 62 60 55 49 45 43 36 29 
   7   0   0   0   0   0   0   0   0   2   0   0   0   0   0   0   5   0   0   0   1   1   0   0   1   0   0   8   0   0   0  11 73 66 64 61 60 57 52 44 34 27 26 
   2   0   0   0   0   0   0   0   0   0   0   0   0   0   0   0   8   0   0   0   0   0   0   0   0   7   0   0   0   0   0  14 101 97 74 73 72 70 62 60 55 53 43 42 37 27 
   4   0   0   0   0   0   0   0   0   0   0   0   0   0   6   0   0   0   1   0  10   0   0   0   6   0   0   0   0   0   0  16 99 73 72 70 66 65 61 60 56 54 53 52 49 44 42 27 
  10   4   0   0   0   0   0   0   0   0   4   0   3   0   8   0   0   0   0   0   0   0   0   0   0   7   0   0   0   0   0  14 99 76 74 73 72 70 65 62 61 52 51 49 36 27 
  10   0   0   0   0   0   0   0   0   0   0   0   0   0   0   0   0   1   0   1   0   0   0   0   0   0   0   9   0   0   0  18 101 99 97 96 92 76 74 69 63 62 61 60 59 58 57 53 45 42 
   6   0   0   0   0   0   0   0   0   0   0   1   5   0   0   0   4   0   0   0   0   0   0   0   0   5   0   0   0   0   1  15 101 96 93 77 76 74 65 62 58 55 52 51 47 44 35 
   2   0   0   0   0   0   0   0   0   0   0   0   0   0   8   0   0   0   0   3   0   0   0   0   0   0   0   0   0   0   0  11 97 77 72 64 62 56 52 51 44 42 27 
   7   0   1   0   0   0   0   0   0   5   0   0   0   0   6   0   0   0   0   0   0   7   3   5   0   0   0   0   0   0   7  18 101 97 96 93 89 75 72 66 65 64 62 60 59 58 57 56 55 44 
   6   0   6   0  10   0   0   0   0   0   0   0  10   0   0   0   0   0   0   0   0   0   0   5   0   0   0   0   0   0   0  15 99 98 97 96 77 76 73 72 65 60 59 58 56 51 42 
   9   0   7   0   0   0   0   1   0   0   8   0   6   0   6   0   0   7   0   0   0   0   0   0   6   0   1   0   5   0   7  14 98 97 75 70 69 65 63 62 61 58 55 53 50 42 
   1   0   9   0   0   0   0   0   0   0   7   0   0   0   0   0   0   6   0   0   0   0   0   0   0   0   0   0   0   0   0   8 101 97 73 70 69 62 45 27 
   7   6   0   0   0   0   0   0   0   0   0   0   0   2   0   0   0   6   0   0   0   0   0   0   0   0   0   0   0   0   0  15 101 100 90 89 76 73 71 70 66 61 60 58 56 44 43 
   2   0   0   0   0   0   0   0   0   0   0   0   0   0   0   0   0   0   0   3   0   0   0   0   0   0   0   0   0   0   0  22 101 99 97 96 95 92 91 89 88 83 82 74 73 72 71 70 69 65 62 61 59 58 
  10   0   6   0   0   0   0   0   0   0   0   8   0   3   4   0   6   0   0   0   0   3   3   0   0   0   0   0   0   0   0  13 100 99 97 95 94 74 71 70 61 60 58 48 44 
   7   0   4   0   0   0   0   0   1   0   4   6   0   0   0   2   7   5   0   0   7   0   0   0   6   0   0   0   0   0   0  14 101 99 97 75 72 71 70 66 65 62 61 60 58 44 
  10   0   5   0   0   0   0   0   0   0   0   0   0   4   0   0   0   0   0   7   5   0   0   0   0   0   4   0   0   0   0  11 101 99 97 96 86 68 65 64 55 51 42 
   8   0   0   0   0   0   0   0   0   0   0   0   6   0   0   0   0   0   0   0   0   0   0   0   0   0   0   1   0   0   0  11 99 96 90 70 67 61 58 56 51 49 44 
   6   6  10   0   0   0   2   0   0   0   7   0   0   6   0   8   0   0   5   0   0   0   0   0   0   0   5   0   0   0   0  13 99 97 96 95 86 83 82 75 69 68 60 59 46 
  10   0   8   0   7   0   0   0   0   0   0   0   0   0   0   0   0   0   0   0   0   4   0   0   8   0   0   0   0   2   0  10 97 96 92 85 84 69 65 58 52 42 
   3   0   0   0   0   0   0   0   0   0   0   0   0   0   0   0   0   0   0   0   0   0   0   0   6   3   0   6   4   0   0  10 97 93 91 90 85 83 75 72 55 50 
  10   0   0   0   0   0   0   0   0   0   0   0   0   7   6   0   0   0   0   0   0   0   7   0   0   5   0   4   0   0   8  13 100 98 94 93 91 90 87 83 82 81 71 58 50 
   2   0   4   1   8   6   0   0   4   0   0   0   0   0   0   0   0   0   0   0   0   0   6   0   0   0   0   7   0   0   0  16 101 99 97 95 93 92 91 90 89 80 77 71 70 69 68 56 
   7   0   0   0   0   0  10   0   0   0   0   0   0   0   0   0   0   0   0   0   0   0   0   0   0   0   0   0   0   0   7  13 101 97 96 95 91 86 80 71 70 69 68 59 53 
   8   7   0   0   0   0   0   0   0   0   0   7   0   0   0   0   9  10   0   0   2   0   0   0   0   0   5   0   0   0   0  17 100 99 98 97 95 93 92 91 88 87 84 83 82 81 78 70 58 
   5   8   0   0   0   0   0   0   0   0   0   0   0   0   0   6   0   0   0   0   0   0   0   0   0   0   0   0   7   0   0  14 98 96 95 92 91 84 83 82 75 70 68 65 61 60 
  10   0   0   6   0   0   0   0   0   0   0   0   0   0   0   0   0   0   0   5   0   0   0   0   3   0  10   0  10   0   0  11 101 99 94 90 85 83 82 81 80 73 50 
   6   8   0   0   0   0   8   0   0   0   6   0   0   0   5   0   0   3   0   0   0   7   0   0   0   0   0   0   0   0   0  17 99 95 94 93 89 88 87 84 83 82 80 79 76 72 71 69 65 
   4   0   6   0   0   0   7   0   0   0   0   0   0   0   0   0   0   0   0   0   5   0   0   0   0   0   0   8   6   0   0  13 101 99 96 93 91 89 87 84 83 82 69 65 58 
   6   0   0   0   0   0   0   0   0   0   0   0   5   4   0   0   0   0   0   0   8   0   0   5   8   0   0   0   0   0   0  17 99 97 95 94 92 90 89 88 87 86 84 83 82 81 80 70 68 
  10   0   0   0   0   0   0   0   0   0   0   0   0   9   0   0   0   0   0   0   0   0   0  10   0   0   0   0   0   0   4  12 101 98 97 91 90 89 86 84 80 79 69 56 
   5   0   0   0   0   0   0   0   0   0   0   4   0   0   0   0   6   0   6   0   0   0   0   0   0   0   0   0   0   0   0  11 98 94 91 87 84 82 75 71 65 61 58 
   5   0   0   0   0   0   0   0   7   0   8   0   0   6   0   0   0   0  10   0   0   0   0   7   0   0   0   0   0   0   0   8 100 95 93 87 83 68 65 51 
   6   3   0   0   7   0   0   0   0   0   0   0   0   0   5   0   0   0   6   0   0   0   0   0   0   0   0   0   0   0   0  12 101 98 92 89 86 84 82 77 73 70 68 62 
   4   0   0   5   0   0   0   0   0   0  10   0   0   0   0   3   5   0   0   0   0   0   0   0   0   0   7   0   0   7   0  12 101 97 96 91 89 88 83 82 72 70 69 60 
   6   0   0   0   0  10   0   0   6   5   0   0   0   0   0   0   0   9   0   0   0   7   0   0   0   0   0   6   0   0   0  12 98 97 95 94 92 86 84 83 82 81 65 63 
  10   5   0   0   6   0   0   0   0   0   0   0   0   6   0   0   0   0   0   0   0   0   0   0   0   7   0   0   0   8   0  14 100 95 93 91 90 89 88 87 83 82 81 80 79 71 
   4   0   0   0   0   0   0   0   0   7   0   0   0   0   0   0   0   0   0   0   0   0   0   7   0   0   0   0   0   0   0  13 99 96 95 91 88 87 86 83 82 80 78 69 68 
   9   0   0   0   0   0   0   0   0   0   0   0   0   0   8   0   0   0  10   0   0   0   0   5   0   0   0   0   0   0   0  12 98 92 91 88 86 85 84 83 82 80 69 68 
   5   0   0   0   0   9   0   0   0   0   0   0   0   3   0   0   0   0   0   0   0   0   0   0   0   0   0   0   0   0   0   9 93 84 82 81 80 79 72 66 65 
   2   0   0   0   0   0   5   7   0   6   0   6   0   0   0   0   0   0   0   0   0   0   0   0   0   0   0   0   0   0   0  11 94 93 91 90 89 88 84 81 79 78 70 
   4   0   0   0   0   0   0   8   0   0   0   0   0   5   5   0   0   0   0   0   0   0   4   0   0   0   8   0   0   0   0  11 99 98 91 89 88 85 83 82 80 78 68 
   7   0   0   7   3   0   0   7   0   5   0   0   0   0   4   0   0   0   0   0   0   0   0   0   0   0   0   0   0   0   0   8 96 92 89 87 83 80 68 65 
   1   0   0   6   0   0   0   0   0   0   0   0   0   3   0   0   0   0   0   0   0   7   0   0   0   0   0   0   6   0   0   8 98 97 86 84 81 80 71 68 
   1   0   0   0   0   0   0   0   0   0   0   8   8   0   0   0   0   7   0   0   0   0   0   7   0   7   0   0   6   0   0   7 96 95 92 89 88 68 59 
   2   0   0   0   0   0   4   0   0   0   0   0   0  10   0   0   0   0   0   0   0   0   0   0   0   0   0   0   0   0   0   8 92 91 89 84 82 80 79 69 
   3   0   0   0   0   0   0   0   3   5   0   0   0   0   0   0   0   0   0   0   0   0   0   0   0   0   0   0   0   0   0   6 95 82 81 80 71 68 
  10   0   0   7   0   0   0   0   0   0   0   0   0   0   0   0   0   7   0   0   8   9   5   0   0   0   0   0   0   0   0   7 94 93 90 89 88 85 83 
   5   0   0   0   0   0   0   0  10   0   0   0   0   0   0   0   0   0   0   6   7   0   0   0   0   0   0   0   0   0   0   7 92 89 87 86 84 83 80 
   3   0   0   6   0   0   0   0   2   0   0   0   0   0   0   0   0   0   0   0   0   0   7   0   0   2   0   0   6   0   0   6 100 94 92 82 80 79 
   3   0   0   0   0   0   0   0   5   0   0   8   0   0   0   0   0   0   0   0   0   9   0   0   0   7   0   0   0   0   7   6 94 88 87 85 83 78 
   6   0   0   0   0   0   0   0   9   0   0   0   0   0   0   0   0   0   0   0   0   0   9   0   0   0   0   0   8   0   0   4 98 82 81 80 
   6   0   0   0   0   0   0   7   0   0   0   0   0   0   0   0   0   5   0   0   0   4   0   0   0   0   4   0   0   6   7   3 86 80 68 
   4   0   0   0   0   0   0   0   0   0   0   0   0   0   0  10   0   0   0   5   0   0   0   0   0   0   0   0   0   0   0   3 84 79 78 
   5   0   7   0   0   0   0   0   0   0   0   0   0   0   0   0   0   0   0   0   0   0   0   0   0   0   0   0   0   0   0   3 87 80 78 
  10   0   0   0   0  10   0   0   0   0   0   0   0   0   0   0   5   0   0   0   0   0   0   0   4   0   0   7   0   0   0   3 93 79 78 
   1   0   0   5   0   0   5   8   0   0   0   0   0   0   7   0   0   0   0   9   0   0   0   0   0   0   0   0   0   0   0   3 94 85 78 
   6   0   0   0   0   0   0   2   0   0   0   0   6   0   0   0   0   0   0   0   0   0   0   0   0   0   9   0   0   2   0   3 85 80 78 
   7   0   0   0   0   0   0   0   0   0   0   0   0   0   0   0   5   0   0   0   0   0   0   0   0   4  10   0   0   0   0   2 81 70 
  10   0   0   0   0   0   0   0   0   6   0   0   0   0   2   0   0   0   0   0   0   0   7   0   0   0   0   0   0   0   0   2 90 78 
   8   0   0   0   0   0   0   0   7   0   0   0   0   0   0   0   0   0   0   0   0   0   0   0   0   0   0   0   0   0   0   2 88 85 
   7   0   0   0   0   0   0   0   0   0   0   0   0   0   0   0   0   0   0   0   0   0   0   0   0   0   0   0   4   0   0   2 79 78 
   8   0   7   0   0   0   0   0   7   0   0   0   0   0   0   0   0   0   0   0   0   0   0   0   0   0   0   0   0   0   0   1 79 
   6   0   0   0   0   0   0   0   0   0   0   0   0   8   0   0   0   0   0   0   0   0   0   0   0   0   0   0   0   0   0   1 81 
   5   0   0   0   0   6   0   0   0   0   0   0   0   0   6   0   0   6   0   0   0   0  10   0   0   0   9   0   0   6   0   1 85 
   7   0   0   0   0   0   0   3   8   0   4   0   0   0   0   0   5   8   0   0   0   0   0   0   0  10   0   0   0   0   0   1 78 
   8   0   0   0   0   0  10   0   0   0   0   0   0   0   0   0   0   0   0   0   6   0   0   0   0   0   3   0   0   7   6   1 86 
   6   0   0   0   0   0   5   0   0   0   0   0   8   0   0   0   0   0   0   0   0   0   0   0   8   0   9   0   0   0   0   1 87 
   6   0   0   0   0   5   0   0   0   0   0   0   0   0   0   0   7   6   0   0   0   0   0   0   0   0   0   0   0   0   0   1 86 
   5   0   0   0   0   0   0   8   0   0   0   0   0  10   0   0   0   0   0   0   0   0   0  10   0   0   0   0   0   0   0   1 81 
   1   7   0   0   0   0   0   0   0   0   0   6   0   0   0   0   5   0   0   0   0   0   0   0   0   0   0   0   0   0   0   1 78 
   3   0   0   0   0   0   0   0   0   0   0   0   0   0   0   0   5   0   0   0   0   0   0   0   0   0   0   0   0   0   0   1 81 
   2   0   0   0   0   6   0   0   0   0   0   0   0   0   0   0   0   0   0   0   0   0   0   0   0   0   0   0   0   0   0   1 102
   6   0   0   0   0   7   0   7   0   7   0   0   0   0  10   0   0   0   0   0   0   0   0   0   0   0   0   0   6   0   0   1 102
   8   0   0   0   0   0   0   0   0   0   0   0   6   9   0   0   0   0   0  10   0   0   0   0   0   6   2   0   0   0   0   1 102
   4   0   0   0   0   0   0   0   0   0   0   0   0   0   0   0   9   0   0   0   0   0   0   0   0   0   0   0   0   0   0   1 102
   4   4   0   0   0   0   0   7   0   0   0   0   0   0   0   0   0   8   0   0   0   0   0   0   0   0   0   0   0   0   0   1 102
   4   0   6   0   0   0   0   0   0   0   0   5   5   7   0   0   0   5   5   0   0  10   5   0   0   0   0   0   0   0   0   1 102
  10   0   4   0   0   0   0   0   0   0   0   0   0   0   0   0   0   0   0   0   0   0   0   0   0   0   0   0   0   0   0   1 102
   2   0   0   0   0   0   5   0   0   0   7   0   0   0   0   0   0   0   0   0   0   0   0   3   0   0   0   0   0   0   0   1 102
   9   0   0   0   0   0   0   0   0   0   0   0   0   0   0   0   0   0   0  10   0   6   0   0   0   0   0   0   0   7   0   1 102
   8   0   0   6   0   0   0   0   0   0   0   0   0   6   0   0   6   0   7   0   0   0   0   0   0   0   0   0   0   0   0   1 102
   3  10   6   0   0   0   0   0   0   0   0   0   0   0   9   0   0   0   0   0   0   0   0   0   0  10   0   0   8   5   0   1 102
   2   0   0   0   0   0   0   7   0   0   0   0   0   0   0   7   0   0   4   0   0   0   0   0   0   0   0   0   0   0   0   1 102
   4   0   0   5   0   0   0   0   0   0   0   0   0   0   0   0   0   0   0   0   0   4   0   0   0   0   0   0   0   0   0   1 102
   3   0   0   0   0   0   6   0   0   0   0   0   0   0   0   0  10   0   0   0   0   0   0   0   0   0   0   0   0   0   0   1 102
   3   0   0   0   0   0   5   0   0   0   0   0   0   0   0   0   0   5   0   0   0   0   0   0   0   0   0   0   0   0   0   1 102
   1   0   0   0   0   0   0   0   0   7   0   4   0   0   0   0   0   0   0   0   7   0   0   0   0   0   0   4   0   0   0   1 102
   8   0   0   0   0   3   0   0   0   0   0   0   7   0   0   0   0   0   0   0   0   0   0   0   0   7   0   8   0   0   0   1 102
   3   0   0   0   0   0   6   0   8   0   0   0   0   0   0   6   0   0   0   0   7   0   0   0  10   0   0   4   0   0   0   1 102
   3   0   0   0   0   0   0   0   0   0   0   0   0   0   0   0   0   0   0   0   0   0   0   0   0   0   0   8   5   0   0   1 102
   2   0   0   8   0   0   0   0   0  10   0   0   8   0   0   0   0   0   0   0   0   0   0   0   0   0   0   0   0   0   0   1 102
   6   0   0   0   0   0   0   0   0   7   0   0   0   0   0   0   0   4   0   7   0   0   0   0   0   0   0   8   0   0   0   1 102
   9   0   0   0   0   0   0   0   7   0   0   0   0   0   0   0   0   6   0   0   0   6   0   0   0   0   0   0   8  10   0   1 102
   4   0   0  10   0   3   0   0   0   0   0   9   0   0   0   0   0   0   0   0   5   0   0   0   0   0   0   0   0   0   0   1 102
   2   0   0   0   0   0   0   0   0   0   0   0   0   0   0   0   0   0   0   0   0   0   0   0   0   0   4   0   0   0   0   1 102
   0   0   0   0   0   0   0   0   0   0   0   0   0   0   0   0   0   0   0   0   0   0   0   0   0   0   0   0   0   0   0   0 
